B32 H3
1.0
  10.0768976212000005    0.0000000000000000    0.0000000000000000
  -5.0385136384999996    8.7264705247999999    0.0000000000000000
   0.0000000000000000    0.0000000000000000   19.9676380157000004
B H
32 3
direct
   0.1651740074204804    0.0000034703606589    0.5000000000075121 B
   0.1651739925209606    0.5000035167253374    0.5000000000075121 B
   0.6651740073697885    0.0000034638288085    0.5000000000075121 B
   0.6651740074461892    0.5000035167253374    0.5000000000075121 B
   0.3348259925831808    0.4999964535031761    0.5000000000075121 B
   0.8348259925236385    0.4999964535031761    0.5000000000075121 B
   0.0000579362234162    0.1651909350869019    0.5000000000075121 B
   0.0000579006565598    0.6651909351556583    0.5000000000075121 B
   0.5000578761136938    0.1651909052924966    0.5000000000075121 B
   0.5000578760855052    0.6651909351556583    0.5000000000075121 B
   0.1651323735690429    0.1651896237892854    0.5000000000075121 B
   0.1651324182611110    0.6651895642692311    0.5000000000075121 B
   0.6651323437443635    0.1651896386864881    0.5000000000075121 B
   0.6651324034152719    0.6651895642692311    0.5000000000075121 B
   0.3333701491016948    0.1667381822771180    0.5000000000075121 B
   0.3333701193024388    0.6667382121402797    0.5000000000075121 B
   0.8333700895178083    0.1667382269687260    0.5000000000075121 B
   0.8333701491132011    0.6667382121402797    0.5000000000075121 B
   0.4999421238564883    0.3348090648672605    0.5000000000075121 B
   0.4999420940873109    0.8348090648214230    0.5000000000075121 B
   0.1666298508287926    0.3332617878826391    0.5000000000075121 B
   0.1666298657162166    0.8332617878368016    0.5000000000075121 B
   0.6666299104979989    0.3332617580882338    0.5000000000075121 B
   0.6666299104125126    0.8332617878368016    0.5000000000075121 B
   0.3348675966140980    0.3348104059592824    0.5000000000075121 B
   0.3348676263751952    0.8348103761190395    0.5000000000075121 B
   0.8348675966537928    0.3348104059592824    0.5000000000075121 B
   0.8348675966256042    0.8348104358224441    0.5000000000075121 B
   0.3348260223497810    0.9999965429551485    0.5000000000075121 B
   0.9999421834501788    0.3348090946616659    0.5000000000075121 B
   0.8348259925946869    0.9999964833663377    0.5000000000075121 B
   0.9999421238980731    0.8348090648214230    0.5000000000075121 B
   0.6651740073697886    0.0000034638288085    0.5681102090833512 H
   0.0000579362234162    0.1651909350869019    0.5681102090833512 H
   0.6666299104125126    0.8332617878368016    0.5681102090833512 H
